; benchmark generated from python API
(set-info :status unknown)
(declare-fun x1 () Real)
(assert
 (forall ((?y1 Real) )(let (($x1003 (forall ((?y3 Real) )(! (let (($x3042 (exists ((?y6 Real) )(! (let (($x442 (= (+ (* 72.0 ?y6) (* 98.0 ?y3)) 30.0)))
 (and $x442 (= (* 58.0 ?y1) (- 51.0)))) :qid k!19))
 ))
 (let (($x2048 (<= (+ (+ (* 19.0 ?y3) (* (- 48.0) ?y1)) (* (- 85.0) x1)) 0.0)))
 (let (($x3013 (and (<= (+ (* (- 59.0) ?y3) (* (- 22.0) x1)) 0.0) (not (= (* 41.0 ?y1) 0.0)))))
 (and (and $x3013 (or (not (= (* (- 27.0) ?y3) 17.0)) $x2048)) $x3042)))) :qid k!19))
 ))
 (let (($x5774 (forall ((?y3 Real) )(! (forall ((?y4 Real) )(! (exists ((?y6 Real) )(! (let ((?x9073 (* 93.0 ?y1)))
 (let ((?x3007 (+ (+ (+ (* 20.0 ?y6) (* 40.0 ?y4)) (* (- 2.0) ?y3)) ?x9073)))
 (let ((?x6557 (* 42.0 x1)))
 (let ((?x1868 (- 93.0)))
 (let ((?x6029 (* ?x1868 ?y3)))
 (let ((?x2997 (+ (+ (+ (* (- 19.0) ?y6) (* (- 50.0) ?y4)) ?x6029) (* (- 37.0) ?y1))))
 (and (not (= (+ ?x2997 ?x6557) 27.0)) (= ?x3007 0.0)))))))) :qid k!19))
  :qid k!19))
  :qid k!19))
 ))
 (let (($x3363 (forall ((?y3 Real) )(! (let (($x2986 (exists ((?y6 Real) )(! (let ((?x7116 (- 45.0)))
 (= (+ (+ (* (- 17.0) ?y6) (* 82.0 ?y3)) (* 71.0 ?y1)) ?x7116)) :qid k!19))
 ))
 (let (($x3008 (forall ((?y4 Real) )(! (let (($x2990 (exists ((?y5 Real) )(! (not (= (+ (* 80.0 ?y3) (* 70.0 x1)) 0.0)) :qid k!19))
 ))
 (let (($x2565 (forall ((?y5 Real) )(! (let ((?x4490 (- 67.0)))
 (let ((?x2849 (+ (+ (* (- 44.0) ?y4) (* (- 45.0) ?y1)) (* (- 25.0) x1))))
 (not (= ?x2849 ?x4490)))) :qid k!19))
 ))
 (and $x2565 $x2990))) :qid k!19))
 ))
 (and $x3008 $x2986))) :qid k!19))
 ))
 (let (($x2941 (exists ((?y5 Real) )(! (exists ((?y6 Real) )(! (let ((?x12435 (- 86.0)))
 (let ((?x7377 (- 65.0)))
 (let ((?x2731 (* ?x7377 x1)))
 (let ((?x2960 (+ (+ (+ (* (- 37.0) ?y6) (* 86.0 ?y5)) (* 93.0 ?y1)) ?x2731)))
 (or (<= ?x2960 0.0) (< (+ (+ (* 76.0 ?y6) (* 79.0 ?y1)) (* 69.0 x1)) ?x12435)))))) :qid k!19))
  :qid k!19))
 ))
 (let (($x1271 (exists ((?y4 Real) )(! (let (($x8080 (or (<= (+ (* (- 3.0) ?y4) (* 54.0 ?y1)) 2.0) (= (+ (* (- 83.0) ?y4) (* 55.0 x1)) (- 76.0)))))
 (let (($x2962 (and (not (= (+ (* 84.0 ?y1) (* 100.0 x1)) (- 12.0))) (= (* (- 26.0) x1) 32.0))))
 (and $x2962 $x8080))) :qid k!19))
 ))
 (let (($x2663 (exists ((?y4 Real) )(! (let (($x10722 (>= (+ (+ (* (- 24.0) ?y4) (* 93.0 ?y1)) (* 63.0 x1)) 91.0)))
 (or (= (+ (* 67.0 ?y4) (* (- 47.0) ?y1)) (- 58.0)) $x10722)) :qid k!19))
 ))
 (let (($x2920 (forall ((?y4 Real) )(! (<= (* (- 14.0) ?y1) 20.0) :qid k!19))
 ))
 (let (($x6383 (or (> (* (- 23.0) x1) (- 87.0)) (< (+ (* (- 41.0) ?y1) (* 19.0 x1)) 0.0))))
 (let (($x7791 (exists ((?y4 Real) )(! (exists ((?y5 Real) )(! (exists ((?y6 Real) )(! (let ((?x12205 (- 60.0)))
 (let ((?x4593 (+ (+ (+ (* 26.0 ?y6) (* (- 58.0) ?y5)) (* (- 74.0) ?y4)) (* (- 38.0) ?y1))))
 (let ((?x9508 (+ (+ (+ (* 3.0 ?y6) (* (- 57.0) ?y4)) (* (- 93.0) ?y1)) (* (- 84.0) x1))))
 (or (> ?x9508 9.0) (not (= ?x4593 ?x12205)))))) :qid k!19))
  :qid k!19))
  :qid k!19))
 ))
 (let (($x2915 (forall ((?y4 Real) )(! (forall ((?y5 Real) )(! (and (<= (* 34.0 ?y5) (- 73.0)) (> (+ (* (- 34.0) ?y5) (* 32.0 ?y1)) (- 45.0))) :qid k!19))
  :qid k!19))
 ))
 (let (($x1094 (and (or (or $x2915 $x7791) (or (and (and (or $x6383 $x2920) $x2663) $x1271) $x2941)) (or (or $x3363 $x5774) $x1003))))
 (let (($x2321 (forall ((?y3 Real) )(! (exists ((?y5 Real) )(! (exists ((?y6 Real) )(! (let ((?x1231 (- 99.0)))
 (let (($x3624 (<= (+ (+ (* (- 11.0) ?y6) (* 41.0 ?y3)) (* 38.0 x1)) ?x1231)))
 (let (($x2861 (< (+ (+ (* (- 64.0) ?y6) (* 60.0 ?y1)) (* 71.0 x1)) 7.0)))
 (let ((?x7347 (+ (+ (+ (* 34.0 ?y6) (* 32.0 ?y5)) (* 9.0 ?y1)) (* (- 54.0) x1))))
 (let ((?x2890 (* 11.0 x1)))
 (let (($x2896 (>= (+ (+ (+ (* 49.0 ?y6) (* 33.0 ?y5)) (* 7.0 ?y3)) ?x2890) 43.0)))
 (let ((?x63 (- 76.0)))
 (let ((?x6345 (* 3.0 x1)))
 (let ((?x2892 (* 62.0 ?y1)))
 (let ((?x2895 (+ (+ (+ (* 1.0 ?y6) (* 93.0 ?y5)) (* (- 82.0) ?y3)) ?x2892)))
 (let ((?x1868 (- 93.0)))
 (let ((?x2804 (- 23.0)))
 (let ((?x3994 (* ?x2804 x1)))
 (let ((?x1150 (+ (+ (* (- 51.0) ?y6) (* (- 60.0) ?y5)) (* (- 18.0) ?y3))))
 (let ((?x71 (- 55.0)))
 (let (($x5548 (and (= (+ (+ (* 35.0 ?y5) (* 49.0 ?y3)) (* 15.0 ?y1)) ?x71) (not (= (+ ?x1150 ?x3994) ?x1868)))))
 (let (($x6044 (or (or $x5548 (and (<= (+ ?x2895 ?x6345) ?x63) $x2896)) (or (or (not (= ?x7347 33.0)) $x2861) $x3624))))
 (let (($x5695 (< (+ (+ (* (- 62.0) ?y6) (* 45.0 ?y5)) (* 66.0 x1)) 0.0)))
 (let ((?x2882 (- 16.0)))
 (let ((?x5883 (* ?x2882 ?y1)))
 (let ((?x2517 (+ (+ (+ (* 100.0 ?y6) (* (- 1.0) ?y5)) (* 69.0 ?y3)) ?x5883)))
 (let ((?x535 (- 9.0)))
 (let ((?x2534 (* ?x535 ?y1)))
 (let ((?x2873 (+ (+ (* (- 6.0) ?y6) (* (- 69.0) ?y5)) (* (- 81.0) ?y3))))
 (let (($x2878 (and (not (= (+ ?x2873 (* 98.0 x1)) 75.0)) (>= (+ (+ (* (- 18.0) ?y5) (* (- 46.0) ?y3)) ?x2534) 31.0))))
 (let ((?x5898 (- 11.0)))
 (let ((?x10067 (* ?x5898 x1)))
 (let ((?x3081 (+ (+ (+ (* (- 42.0) ?y6) (* 57.0 ?y5)) (* (- 49.0) ?y3)) ?x10067)))
 (let ((?x6388 (- 77.0)))
 (let ((?x9691 (* ?x6388 x1)))
 (let ((?x11015 (+ (+ (* (- 61.0) ?y6) (* (- 100.0) ?y5)) (* (- 33.0) ?y3))))
 (let (($x318 (and (not (= (+ (+ ?x11015 (* 22.0 ?y1)) ?x9691) 51.0)) (> ?x3081 0.0))))
 (let (($x3736 (<= (+ (+ (* (- 64.0) ?y6) (* 34.0 ?y3)) (* 48.0 ?y1)) ?x71)))
 (let ((?x2842 (+ (+ (* (- 52.0) ?y5) (* (- 20.0) ?y3)) (* (- 58.0) ?y1))))
 (let (($x2484 (or (and (and (= (+ ?x2842 (* 44.0 x1)) 0.0) $x3736) $x318) (or $x2878 (and (<= (+ ?x2517 (* (- 49.0) x1)) 44.0) $x5695)))))
 (or $x2484 $x6044)))))))))))))))))))))))))))))))))))) :qid k!19))
  :qid k!19))
  :qid k!19))
 ))
 (let (($x2834 (forall ((?y3 Real) )(! (let (($x2833 (exists ((?y4 Real) )(! (exists ((?y6 Real) )(! (let ((?x2882 (- 16.0)))
 (let ((?x5883 (* ?x2882 ?y1)))
 (let (($x4945 (or (<= (+ (+ (* (- 18.0) ?y4) (* (- 93.0) ?y3)) ?x5883) 96.0) (not (= (+ (* 88.0 ?y6) (* (- 2.0) ?y4)) 0.0)))))
 (let ((?x3644 (* 14.0 x1)))
 (let ((?x7331 (+ (+ (* (- 74.0) ?y6) (* (- 62.0) ?y4)) (* (- 71.0) ?y1))))
 (let ((?x10048 (- 3.0)))
 (let ((?x2790 (+ (+ (+ (* (- 72.0) ?y6) (* 38.0 ?y4)) (* (- 69.0) ?y1)) (* (- 95.0) x1))))
 (and (and (= ?x2790 ?x10048) (>= (+ ?x7331 ?x3644) 0.0)) $x4945)))))))) :qid k!19))
  :qid k!19))
 ))
 (let (($x2581 (forall ((?y4 Real) )(! (forall ((?y5 Real) )(! (forall ((?y6 Real) )(! (let ((?x11437 (- 32.0)))
 (let ((?x10062 (* 39.0 ?y3)))
 (let ((?x2751 (+ (+ (+ (* 76.0 ?y6) (* (- 79.0) ?y5)) (* 51.0 ?y4)) ?x10062)))
 (let ((?x6345 (* 3.0 x1)))
 (let ((?x1875 (+ (+ (+ (* 65.0 ?y6) (* 90.0 ?y4)) (* (- 62.0) ?y3)) (* (- 82.0) ?y1))))
 (let (($x5614 (or (> (+ ?x1875 ?x6345) 65.0) (< (+ (+ ?x2751 (* (- 10.0) ?y1)) (* (- 86.0) x1)) ?x11437))))
 (let ((?x6557 (* 42.0 x1)))
 (let ((?x10314 (* 42.0 ?y1)))
 (let ((?x7419 (+ (+ (+ (* 17.0 ?y6) (* 41.0 ?y5)) (* (- 13.0) ?y4)) ?x10314)))
 (let ((?x11615 (- 74.0)))
 (let ((?x3644 (* 14.0 x1)))
 (let ((?x7629 (+ (+ (* (- 47.0) ?y6) (* (- 19.0) ?y5)) (* (- 56.0) ?y4))))
 (let (($x8319 (and (< (+ (+ ?x7629 (* (- 7.0) ?y1)) ?x3644) ?x11615) (< (+ ?x7419 ?x6557) 73.0))))
 (and $x8319 $x5614)))))))))))))) :qid k!19))
  :qid k!19))
  :qid k!19))
 ))
 (let (($x2611 (forall ((?y4 Real) )(! (exists ((?y5 Real) )(! (exists ((?y6 Real) )(! (let ((?x9073 (* 93.0 ?y3)))
 (let ((?x2632 (+ (+ (+ (* 92.0 ?y6) (* (- 60.0) ?y5)) (* 80.0 ?y4)) ?x9073)))
 (let ((?x5499 (+ (+ (+ (* 56.0 ?y5) (* 58.0 ?y4)) (* (- 16.0) ?y3)) (* (- 44.0) ?y1))))
 (let ((?x11868 (- 5.0)))
 (let ((?x8529 (* ?x11868 x1)))
 (let ((?x2889 (* 37.0 ?y1)))
 (let ((?x2760 (* 63.0 ?y3)))
 (let ((?x6300 (+ (+ (+ (+ (* 37.0 ?y6) (* 7.0 ?y5)) (* 14.0 ?y4)) ?x2760) ?x2889)))
 (let (($x8039 (or (<= (+ ?x6300 ?x8529) 0.0) (not (= (+ ?x5499 (* (- 18.0) x1)) 17.0)))))
 (and $x8039 (< (+ (+ ?x2632 (* (- 77.0) ?y1)) (* (- 31.0) x1)) 0.0))))))))))) :qid k!19))
  :qid k!19))
  :qid k!19))
 ))
 (or (or $x2611 $x2581) $x2833)))) :qid k!19))
 ))
 (let (($x6946 (forall ((?y4 Real) )(! (or (<= (* 93.0 ?y1) (- 69.0)) (not (= (+ (* (- 22.0) ?y4) (* 56.0 x1)) 0.0))) :qid k!19))
 ))
 (let (($x7446 (exists ((?y5 Real) )(! (> (+ (* 8.0 ?y1) (* (- 59.0) x1)) 59.0) :qid k!19))
 ))
 (let (($x9226 (exists ((?y5 Real) )(! (= (+ (+ (* 23.0 ?y5) (* 86.0 ?y1)) (* (- 38.0) x1)) 0.0) :qid k!19))
 ))
 (let (($x9374 (forall ((?y3 Real) )(! (exists ((?y5 Real) )(! (exists ((?y6 Real) )(! (let ((?x9182 (- 78.0)))
 (let ((?x10072 (* 89.0 x1)))
 (let ((?x4339 (* 68.0 ?y1)))
 (let ((?x8512 (+ (+ (+ (+ (* 6.0 ?y6) (* 92.0 ?y5)) (* 73.0 ?y3)) ?x4339) ?x10072)))
 (let ((?x7770 (+ (+ (+ (* ?x9182 ?y6) (* (- 86.0) ?y5)) (* (- 11.0) ?y3)) (* 25.0 ?y1))))
 (and (not (= (+ ?x7770 (* (- 55.0) x1)) 39.0)) (not (= ?x8512 ?x9182)))))))) :qid k!19))
  :qid k!19))
  :qid k!19))
 ))
 (let (($x6937 (exists ((?y4 Real) )(! (exists ((?y6 Real) )(! (let ((?x942 (+ (+ (* (- 96.0) ?y6) (* (- 35.0) ?y4)) (* (- 31.0) ?y1))))
 (and (< (+ (* 1.0 ?y1) (* 17.0 x1)) 76.0) (<= ?x942 0.0))) :qid k!19))
  :qid k!19))
 ))
 (let (($x11636 (exists ((?y4 Real) )(! (let ((?x5496 (- 46.0)))
 (let ((?x10557 (- 92.0)))
 (let ((?x4045 (* ?x10557 x1)))
 (let (($x10182 (not (= (+ (+ (* (- 53.0) ?y4) (* (- 23.0) ?y1)) ?x4045) ?x5496))))
 (let ((?x11816 (- 80.0)))
 (let (($x5449 (>= (+ (+ (* (- 56.0) ?y4) (* 9.0 ?y1)) (* (- 100.0) x1)) ?x11816)))
 (and (or (= (+ (* (- 15.0) ?y4) (* (- 90.0) ?y1)) 50.0) $x5449) $x10182))))))) :qid k!19))
 ))
 (let (($x2563 (exists ((?y4 Real) )(! (let (($x2554 (exists ((?y5 Real) )(! (forall ((?y6 Real) )(! (let ((?x2903 (- 26.0)))
 (let ((?x3046 (* ?x2903 ?y1)))
 (let ((?x2755 (+ (+ (+ (* (- 18.0) ?y6) (* 62.0 ?y5)) (* (- 36.0) ?y4)) ?x3046)))
 (let (($x2705 (>= (+ (+ (* (- 8.0) ?y5) (* 98.0 ?y4)) (* (- 13.0) ?y1)) 16.0)))
 (or $x2705 (not (= ?x2755 54.0))))))) :qid k!19))
  :qid k!19))
 ))
 (let (($x11233 (forall ((?y5 Real) )(! (let ((?x7224 (- 52.0)))
 (<= (+ (+ (* (- 13.0) ?y5) (* (- 5.0) ?y4)) (* 4.0 ?y1)) ?x7224)) :qid k!19))
 ))
 (let (($x2781 (forall ((?y5 Real) )(! (let ((?x2736 (- 64.0)))
 (<= (+ (+ (* 32.0 ?y5) (* 40.0 ?y4)) (* (- 65.0) x1)) ?x2736)) :qid k!19))
 ))
 (let (($x9168 (forall ((?y5 Real) )(! (> (+ (+ (* 86.0 ?y5) (* 1.0 ?y1)) (* 96.0 x1)) 87.0) :qid k!19))
 ))
 (let (($x2764 (forall ((?y5 Real) )(! (let (($x6200 (= (+ (+ (* 48.0 ?y5) (* (- 62.0) ?y1)) (* 85.0 x1)) 63.0)))
 (not $x6200)) :qid k!19))
 ))
 (or (and (and $x2764 $x9168) (or $x2781 $x11233)) $x2554)))))) :qid k!19))
 ))
 (let (($x11371 (and (or $x2563 $x11636) (and $x6937 (and $x9374 (or (and $x9226 $x7446) $x6946))))))
 (let (($x2715 (exists ((?y4 Real) )(! (let (($x1709 (forall ((?y6 Real) )(! (let (($x7811 (= (+ (+ (* (- 73.0) ?y6) (* 15.0 ?y4)) (* 2.0 ?y1)) 45.0)))
 (let (($x2698 (or $x7811 (>= (+ (+ (* 25.0 ?y6) (* 83.0 ?y4)) (* 21.0 x1)) 0.0))))
 (let ((?x3537 (+ (+ (* (- 29.0) ?y6) (* (- 51.0) ?y1)) (* (- 51.0) x1))))
 (let (($x2797 (not (= (+ (* 98.0 ?y4) (* 36.0 x1)) 54.0))))
 (let (($x2689 (>= (+ (+ (* 62.0 ?y6) (* 74.0 ?y4)) (* (- 77.0) x1)) 67.0)))
 (let ((?x1893 (- 39.0)))
 (let ((?x2047 (+ (+ (+ (* 21.0 ?y6) (* 82.0 ?y4)) (* (- 12.0) ?y1)) (* (- 24.0) x1))))
 (and (and (and (> ?x2047 ?x1893) $x2689) (and $x2797 (= ?x3537 0.0))) $x2698)))))))) :qid k!19))
 ))
 (let (($x5803 (exists ((?y6 Real) )(! (let (($x1602 (or (<= (+ (* 100.0 ?y1) (* (- 57.0) x1)) (- 22.0)) (>= (+ (* (- 15.0) ?y6) (* 41.0 ?y4)) 7.0))))
 (let ((?x11159 (- 83.0)))
 (let ((?x11816 (- 80.0)))
 (let ((?x9129 (* ?x11816 x1)))
 (let ((?x1016 (+ (+ (+ (* 35.0 ?y6) (* 59.0 ?y4)) (* (- 50.0) ?y1)) ?x9129)))
 (let (($x7659 (or (< (+ (* 58.0 ?y4) (* 98.0 ?y1)) (- 59.0)) (< ?x1016 ?x11159))))
 (let ((?x972 (- 28.0)))
 (let ((?x535 (- 9.0)))
 (let ((?x8829 (* ?x535 ?y1)))
 (let ((?x11039 (+ (+ (+ (* (- 36.0) ?y6) (* (- 69.0) ?y4)) ?x8829) (* (- 35.0) x1))))
 (let (($x2118 (= (+ (+ (* 14.0 ?y6) (* (- 53.0) ?y4)) (* 13.0 ?y1)) 0.0)))
 (or (or (or (not $x2118) (not (= ?x11039 ?x972))) $x7659) $x1602)))))))))))) :qid k!19))
 ))
 (let (($x12861 (exists ((?y6 Real) )(! (let ((?x7089 (- 62.0)))
 (let ((?x1134 (* 25.0 x1)))
 (let ((?x960 (+ (+ (+ (* 17.0 ?y6) (* 42.0 ?y4)) (* (- 38.0) ?y1)) ?x1134)))
 (>= ?x960 ?x7089)))) :qid k!19))
 ))
 (let (($x1856 (< (+ (+ (* 9.0 ?y4) (* 78.0 ?y1)) (* (- 11.0) x1)) 91.0)))
 (let (($x7661 (not (= (+ (* 45.0 ?y4) (* 55.0 ?y1)) 0.0))))
 (let (($x87 (or (and $x7661 $x1856) (<= (+ (* (- 24.0) ?y4) (* 30.0 ?y1)) (- 22.0)))))
 (let (($x1499 (forall ((?y6 Real) )(! (let (($x6779 (= (+ (+ (* (- 48.0) ?y4) (* 11.0 ?y1)) (* (- 40.0) x1)) 12.0)))
 (not $x6779)) :qid k!19))
 ))
 (and (and (and (or $x1499 $x87) $x12861) $x5803) $x1709)))))))) :qid k!19))
 ))
 (let (($x6052 (exists ((?y6 Real) )(! (let ((?x9646 (- 85.0)))
 (let (($x8977 (<= (+ (+ (* 81.0 ?y6) (* (- 13.0) ?y1)) (* (- 33.0) x1)) ?x9646)))
 (and (= (+ (* 74.0 ?y6) (* (- 91.0) x1)) 0.0) $x8977))) :qid k!19))
 ))
 (let (($x6074 (forall ((?y6 Real) )(! (let ((?x7665 (- 79.0)))
 (= (+ (* (- 83.0) ?y6) (* (- 66.0) x1)) ?x7665)) :qid k!19))
 ))
 (let (($x8265 (and (<= (+ (* (- 3.0) ?y1) (* (- 34.0) x1)) 0.0) (= (+ (* (- 83.0) ?y1) (* 85.0 x1)) (- 54.0)))))
 (let (($x9065 (and (and $x8265 (= (* (- 51.0) ?y1) (- 37.0))) (not (= (+ (* 65.0 ?y1) (* (- 46.0) x1)) 54.0)))))
 (let (($x8433 (or (>= (* 67.0 ?y1) 0.0) (<= (+ (* (- 65.0) ?y1) (* (- 70.0) x1)) (- 90.0)))))
 (let (($x2694 (exists ((?y5 Real) )(! (let ((?x9910 (- 88.0)))
 (let (($x10140 (> (+ (+ (* 79.0 ?y5) (* (- 7.0) ?y1)) (* (- 27.0) x1)) ?x9910)))
 (and $x10140 (not (= (+ (* (- 60.0) ?y1) (* 43.0 x1)) 0.0))))) :qid k!19))
 ))
 (let (($x3997 (or (or (or $x2694 (or $x8433 (= (* 10.0 ?y1) 65.0))) $x9065) (and $x6074 $x6052))))
 (let (($x9408 (exists ((?y6 Real) )(! (let (($x7155 (and (< (* (- 74.0) x1) (- 44.0)) (<= (+ (* 78.0 ?y6) (* 75.0 x1)) (- 91.0)))))
 (let (($x2697 (> (+ (+ (* (- 77.0) ?y6) (* 40.0 ?y1)) (* 29.0 x1)) 32.0)))
 (or $x2697 $x7155))) :qid k!19))
 ))
 (let (($x2787 (forall ((?y5 Real) )(! (let ((?x7673 (- 75.0)))
 (let (($x9204 (= (+ (+ (* (- 77.0) ?y5) (* 7.0 ?y1)) (* 5.0 x1)) ?x7673)))
 (let (($x7637 (> (+ (+ (* (- 12.0) ?y5) (* 93.0 ?y1)) (* (- 94.0) x1)) 24.0)))
 (let (($x6231 (exists ((?y6 Real) )(! (let ((?x584 (- 35.0)))
 (let ((?x7534 (* 19.0 x1)))
 (let ((?x2796 (+ (+ (+ (* (- 51.0) ?y6) (* 84.0 ?y5)) (* (- 80.0) ?y1)) ?x7534)))
 (or (< (+ (* (- 7.0) ?y6) (* 17.0 ?y5)) (- 44.0)) (>= ?x2796 ?x584))))) :qid k!19))
 ))
 (and $x6231 (or $x7637 (not $x9204))))))) :qid k!19))
 ))
 (let (($x2034 (exists ((?y4 Real) )(! (forall ((?y5 Real) )(! (let ((?x11941 (- 44.0)))
 (let (($x3731 (< (+ (+ (* (- 98.0) ?y5) (* (- 51.0) ?y1)) (* 28.0 x1)) ?x11941)))
 (let ((?x11180 (+ (+ (+ (* (- 31.0) ?y5) (* 4.0 ?y4)) (* (- 38.0) ?y1)) (* (- 2.0) x1))))
 (let (($x2022 (> (+ (+ (* (- 63.0) ?y5) (* 47.0 ?y4)) (* (- 96.0) x1)) 86.0)))
 (let (($x12803 (<= (+ (+ (* 5.0 ?y5) (* (- 100.0) ?y4)) (* 95.0 x1)) 24.0)))
 (let (($x11560 (>= (+ (+ (* (- 86.0) ?y5) (* 72.0 ?y1)) (* 8.0 x1)) 0.0)))
 (let ((?x6905 (- 2.0)))
 (let (($x2036 (< (+ (+ (* 83.0 ?y5) (* (- 57.0) ?y1)) (* (- 70.0) x1)) ?x6905)))
 (let ((?x5496 (- 46.0)))
 (let ((?x2642 (* ?x5496 x1)))
 (let ((?x2744 (+ (+ (+ (* 8.0 ?y5) (* (- 91.0) ?y4)) (* (- 51.0) ?y1)) ?x2642)))
 (let (($x2072 (< (+ (+ (* 98.0 ?y5) (* (- 16.0) ?y1)) (* (- 92.0) x1)) 76.0)))
 (or (or (and $x2072 (not (= ?x2744 0.0))) (or $x2036 $x11560)) (or (and $x12803 $x2022) (or (not (= ?x11180 0.0)) $x3731))))))))))))))) :qid k!19))
  :qid k!19))
 ))
 (let (($x13230 (forall ((?y5 Real) )(! (let (($x11402 (forall ((?y6 Real) )(! (let (($x301 (< (+ (+ (* (- 88.0) ?y5) (* 5.0 ?y1)) (* 57.0 x1)) 67.0)))
 (let (($x1994 (<= (+ (* 45.0 ?y6) (* 47.0 x1)) 0.0)))
 (or $x1994 $x301))) :qid k!19))
 ))
 (let (($x11433 (exists ((?y6 Real) )(! (let (($x9255 (= (+ (+ (* 85.0 ?y6) (* (- 20.0) ?y1)) (* 22.0 x1)) 12.0)))
 (let ((?x4852 (+ (+ (+ (* 8.0 ?y6) (* 71.0 ?y5)) (* 15.0 ?y1)) (* (- 37.0) x1))))
 (or (< ?x4852 94.0) $x9255))) :qid k!19))
 ))
 (let ((?x5595 (- 8.0)))
 (let (($x4920 (or (>= (+ (+ (* 32.0 ?y5) (* 63.0 ?y1)) (* 48.0 x1)) ?x5595) (= (+ (* 24.0 ?y1) (* 88.0 x1)) (- 78.0)))))
 (and $x4920 (and $x11433 $x11402)))))) :qid k!19))
 ))
 (let (($x11467 (or (or (and (or $x13230 $x2034) (and (and $x2787 $x9408) $x3997)) $x2715) (or (and $x11371 $x2834) (and $x2321 $x1094)))))
 (let (($x441 (forall ((?y3 Real) )(! (exists ((?y4 Real) )(! (let (($x12533 (forall ((?y6 Real) )(! (let ((?x4363 (+ (+ (* (- 88.0) ?y6) (* (- 19.0) ?y4)) (* (- 1.0) ?y3))))
 (let (($x5719 (> (+ (+ (* 63.0 ?y4) (* (- 42.0) ?y3)) (* (- 23.0) x1)) 89.0)))
 (let ((?x9031 (* 43.0 x1)))
 (let ((?x11079 (+ (+ (+ (* 68.0 ?y6) (* (- 74.0) ?y4)) (* 65.0 ?y3)) ?x9031)))
 (let ((?x7131 (* 99.0 x1)))
 (let ((?x6839 (* 27.0 ?y1)))
 (let ((?x8720 (+ (+ (+ (+ (* 96.0 ?y6) (* 71.0 ?y4)) (* 23.0 ?y3)) ?x6839) ?x7131)))
 (let (($x6927 (and (or (>= ?x8720 82.0) (> ?x11079 93.0)) (not (= (+ (* 36.0 ?y6) (* (- 14.0) ?y3)) 0.0)))))
 (let (($x7374 (> (+ (+ (* 25.0 ?y3) (* 36.0 ?y1)) (* (- 39.0) x1)) 27.0)))
 (let (($x5563 (<= (+ (+ (* 16.0 ?y4) (* (- 32.0) ?y1)) (* 86.0 x1)) 95.0)))
 (and (and $x5563 $x7374) (and $x6927 (or $x5719 (<= (+ ?x4363 (* (- 47.0) x1)) 0.0)))))))))))))) :qid k!19))
 ))
 (let (($x11213 (exists ((?y5 Real) )(! (forall ((?y6 Real) )(! (let ((?x10048 (- 3.0)))
 (let ((?x13218 (* 94.0 x1)))
 (let ((?x12126 (* 40.0 ?y1)))
 (let ((?x6719 (+ (+ (+ (* 96.0 ?y6) (* (- 18.0) ?y5)) (* (- 31.0) ?y3)) ?x12126)))
 (let (($x610 (and (= (+ ?x6719 ?x13218) ?x10048) (< (+ (+ (* 50.0 ?y5) (* 82.0 ?y4)) (* 30.0 ?y1)) 4.0))))
 (let ((?x9047 (- 70.0)))
 (let ((?x7019 (* 45.0 ?y1)))
 (let (($x1265 (> (+ (+ (+ (* 30.0 ?y6) (* 7.0 ?y4)) (* 38.0 ?y3)) ?x7019) ?x9047)))
 (let ((?x5649 (- 40.0)))
 (let (($x4974 (or (> (+ (+ (* 86.0 ?y6) (* 44.0 ?y4)) (* 87.0 x1)) ?x5649) $x1265)))
 (let ((?x10675 (* 13.0 x1)))
 (let (($x7245 (> (+ (+ (+ (* 90.0 ?y6) (* 5.0 ?y5)) (* 23.0 ?y4)) ?x10675) 65.0)))
 (let ((?x3822 (- 36.0)))
 (let (($x6960 (= (+ (+ (* (- 100.0) ?y4) (* (- 46.0) ?y3)) (* ?x9047 x1)) ?x3822)))
 (let ((?x2903 (- 26.0)))
 (let ((?x217 (+ (+ (+ (* ?x2903 ?y6) (* 3.0 ?y4)) (* 21.0 ?y3)) (* (- 91.0) ?y1))))
 (let ((?x12135 (- 91.0)))
 (let ((?x3310 (* ?x12135 x1)))
 (let (($x8712 (>= (+ (+ (+ (* 2.0 ?y6) (* 52.0 ?y4)) (* 75.0 ?y1)) ?x3310) 0.0)))
 (let ((?x8008 (+ (+ (* (- 4.0) ?y6) (* (- 12.0) ?y3)) (* (- 58.0) ?y1))))
 (let ((?x2115 (* 97.0 x1)))
 (let ((?x8584 (+ (+ (+ (* (- 76.0) ?y6) (* (- 9.0) ?y4)) (* 68.0 ?y3)) ?x2115)))
 (let ((?x2268 (- 97.0)))
 (let ((?x11242 (* 65.0 x1)))
 (let ((?x13205 (* 50.0 ?y1)))
 (let ((?x8811 (* 40.0 ?y3)))
 (let ((?x3153 (+ (+ (+ (+ (* 91.0 ?y6) (* 28.0 ?y5)) (* 11.0 ?y4)) ?x8811) ?x13205)))
 (let ((?x9054 (- 59.0)))
 (let ((?x9125 (* 78.0 x1)))
 (let ((?x2557 (+ (+ (+ (* 15.0 ?y5) (* 12.0 ?y3)) (* (- 12.0) ?y1)) ?x9125)))
 (let (($x707 (and (and (>= ?x2557 ?x9054) (= (+ ?x3153 ?x11242) ?x2268)) (or (> ?x8584 0.0) (= ?x8008 83.0)))))
 (or $x707 (or (or (or $x8712 (< ?x217 ?x2903)) (or $x6960 $x7245)) (and $x4974 $x610)))))))))))))))))))))))))))))))))) :qid k!19))
  :qid k!19))
 ))
 (let (($x3297 (exists ((?y5 Real) )(! (forall ((?y6 Real) )(! (let ((?x6320 (* 36.0 ?y3)))
 (let ((?x12925 (+ (+ (+ (* (- 14.0) ?y6) (* (- 41.0) ?y5)) (* 47.0 ?y4)) ?x6320)))
 (let ((?x13198 (+ (+ (+ (* 75.0 ?y6) (* (- 99.0) ?y4)) (* (- 66.0) ?y3)) (* (- 48.0) ?y1))))
 (let (($x3512 (and (<= (+ ?x13198 (* (- 20.0) x1)) 5.0) (<= (+ (+ ?x12925 (* (- 17.0) ?y1)) (* (- 69.0) x1)) 44.0))))
 (let ((?x2804 (- 23.0)))
 (let ((?x3822 (- 36.0)))
 (let ((?x5609 (* ?x3822 ?y4)))
 (let ((?x5615 (+ (+ (+ (* (- 83.0) ?y6) (* (- 39.0) ?y5)) ?x5609) (* 69.0 ?y1))))
 (let ((?x8651 (- 24.0)))
 (let ((?x2420 (+ (+ (+ (* 49.0 ?y6) (* (- 28.0) ?y5)) (* (- 17.0) ?y3)) (* (- 13.0) ?y1))))
 (let ((?x1741 (- 73.0)))
 (let ((?x9145 (* 7.0 x1)))
 (let ((?x2374 (+ (+ (+ (* 84.0 ?y6) (* 2.0 ?y5)) (* (- 27.0) ?y4)) ?x9145)))
 (let (($x2618 (or (<= (+ (* (- 22.0) ?y6) (* (- 60.0) x1)) (- 55.0)) (= (* (- 38.0) ?y6) 0.0))))
 (let (($x6783 (and (or $x2618 (and (= ?x2374 ?x1741) (not (= ?x2420 ?x8651)))) (and (< (+ ?x5615 (* (- 30.0) x1)) ?x2804) $x3512))))
 (let ((?x6276 (* 17.0 ?y1)))
 (let ((?x3127 (+ (+ (+ (* (- 57.0) ?y6) (* 1.0 ?y5)) (* (- 84.0) ?y4)) (* 49.0 ?y3))))
 (let ((?x9192 (- 38.0)))
 (let ((?x5694 (* ?x9192 x1)))
 (let ((?x8296 (* 86.0 ?y1)))
 (let ((?x2784 (+ (+ (+ (* 10.0 ?y6) (* (- 54.0) ?y5)) (* (- 33.0) ?y3)) ?x8296)))
 (let (($x2571 (and (not (= (+ ?x2784 ?x5694) 36.0)) (> (+ (+ ?x3127 ?x6276) (* 32.0 x1)) 30.0))))
 (let (($x7717 (< (+ (+ (* (- 42.0) ?y5) (* 66.0 ?y4)) (* (- 67.0) x1)) 49.0)))
 (let ((?x5447 (+ (+ (+ (* (- 59.0) ?y6) (* 81.0 ?y5)) (* 48.0 ?y3)) (* 15.0 ?y1))))
 (let ((?x919 (* 46.0 x1)))
 (let ((?x8363 (* 4.0 ?y1)))
 (let ((?x941 (+ (+ (+ (* 38.0 ?y5) (* (- 97.0) ?y4)) (* 60.0 ?y3)) ?x8363)))
 (let ((?x12205 (- 60.0)))
 (let ((?x2913 (* ?x12205 x1)))
 (let ((?x3278 (- 33.0)))
 (let ((?x8809 (* ?x3278 ?y3)))
 (let ((?x1064 (+ (+ (+ (* (- 93.0) ?y6) (* (- 53.0) ?y5)) (* 73.0 ?y4)) ?x8809)))
 (let (($x6977 (or (>= (+ (+ ?x1064 (* 94.0 ?y1)) ?x2913) 0.0) (= (+ ?x941 ?x919) 6.0))))
 (let ((?x10675 (* 13.0 x1)))
 (let ((?x1869 (+ (+ (+ (* (- 45.0) ?y6) (* 93.0 ?y5)) (* 31.0 ?y1)) ?x10675)))
 (let ((?x3069 (* 45.0 ?y3)))
 (let ((?x8632 (+ (+ (+ (+ (* 12.0 ?y6) (* 62.0 ?y5)) (* 94.0 ?y4)) ?x3069) (* (- 32.0) x1))))
 (let ((?x11242 (* 65.0 x1)))
 (let ((?x11729 (* 65.0 ?y1)))
 (let ((?x415 (+ (+ (+ (* 33.0 ?y6) (* (- 34.0) ?y4)) (* 2.0 ?y3)) ?x11729)))
 (let ((?x10947 (- 17.0)))
 (let ((?x1541 (* 100.0 ?y3)))
 (let ((?x5225 (- 14.0)))
 (let ((?x10296 (* ?x5225 ?y4)))
 (let ((?x5790 (+ (+ (+ (+ (* ?x5225 ?y6) (* (- 10.0) ?y5)) ?x10296) ?x1541) (* 12.0 ?y1))))
 (let ((?x11251 (+ (+ (+ (* (- 64.0) ?y6) (* 40.0 ?y5)) (* 36.0 ?y4)) (* 46.0 ?y1))))
 (let ((?x5568 (+ (+ (+ (* (- 21.0) ?y6) (* 63.0 ?y5)) (* (- 9.0) ?y3)) (* 29.0 ?y1))))
 (let (($x3222 (and (or (>= (+ ?x5568 (* 12.0 x1)) 0.0) (= ?x11251 69.0)) (or (< ?x5790 ?x10947) (> (+ ?x415 ?x11242) 35.0)))))
 (let (($x9913 (or (and $x3222 (and (or (<= ?x8632 0.0) (<= ?x1869 0.0)) $x6977)) (and (or (= (+ ?x5447 (* 6.0 x1)) 0.0) $x7717) $x2571))))
 (and $x9913 $x6783)))))))))))))))))))))))))))))))))))))))))))))))))) :qid k!19))
  :qid k!19))
 ))
 (let (($x4320 (forall ((?y6 Real) )(! (let ((?x6226 (* 34.0 x1)))
 (let ((?x6124 (+ (+ (* (- 57.0) ?y6) (* (- 66.0) ?y4)) (* (- 37.0) ?y3))))
 (let ((?x71 (- 55.0)))
 (let ((?x11615 (- 74.0)))
 (let ((?x12144 (* ?x11615 x1)))
 (let (($x5833 (or (<= (+ (+ (* (- 86.0) ?y3) (* (- 8.0) ?y1)) ?x12144) ?x71) (< (+ (+ ?x6124 (* (- 28.0) ?y1)) ?x6226) 0.0))))
 (let ((?x10807 (- 90.0)))
 (let ((?x8670 (* 67.0 ?y1)))
 (let ((?x10647 (+ (+ (+ (* 10.0 ?y6) (* (- 9.0) ?y4)) (* 31.0 ?y3)) ?x8670)))
 (let ((?x3822 (- 36.0)))
 (let ((?x10384 (* 72.0 x1)))
 (let ((?x6068 (+ (+ (+ (* 1.0 ?y6) (* 36.0 ?y4)) (* (- 57.0) ?y1)) ?x10384)))
 (let ((?x2130 (+ (+ (+ (* 79.0 ?y6) (* (- 10.0) ?y4)) (* (- 24.0) ?y3)) (* (- 56.0) ?y1))))
 (let ((?x10947 (- 17.0)))
 (let ((?x5728 (* 32.0 ?y1)))
 (let ((?x3890 (+ (+ (+ (* 85.0 ?y6) (* 15.0 ?y4)) (* (- 19.0) ?y3)) ?x5728)))
 (let (($x8892 (and (< (+ ?x3890 (* (- 44.0) x1)) ?x10947) (= (+ ?x2130 (* (- 75.0) x1)) 42.0))))
 (let (($x11958 (and (> (+ (* (- 26.0) ?y6) (* 79.0 ?y4)) 98.0) (not (= (+ (* (- 52.0) ?y6) (* (- 30.0) ?y3)) 0.0)))))
 (let ((?x11319 (- 94.0)))
 (let ((?x1229 (* 80.0 x1)))
 (let (($x13085 (= (+ (+ (+ (* 7.0 ?y6) (* 100.0 ?y4)) (* 86.0 ?y3)) ?x1229) ?x11319)))
 (let (($x105 (and (and $x13085 $x11958) (and $x8892 (and (or (not (= ?x6068 ?x3822)) (not (= ?x10647 ?x10807))) $x5833)))))
 (let ((?x7252 (+ (+ (+ (* (- 56.0) ?y4) (* 96.0 ?y3)) (* (- 29.0) ?y1)) (* (- 62.0) x1))))
 (let ((?x3800 (* 87.0 x1)))
 (let ((?x436 (* 42.0 ?y1)))
 (let ((?x10480 (+ (+ (+ (+ (* 50.0 ?y6) (* 55.0 ?y4)) (* 55.0 ?y3)) ?x436) ?x3800)))
 (let ((?x7224 (- 52.0)))
 (let (($x2146 (<= (+ (+ (* 54.0 ?y3) (* 38.0 ?y1)) (* (- 48.0) x1)) ?x7224)))
 (let (($x7098 (and (or (= (* 97.0 x1) 0.0) $x2146) (and (> ?x10480 ?x3822) (= ?x7252 53.0)))))
 (let ((?x9690 (- 95.0)))
 (let (($x6458 (>= (+ (+ (* 34.0 ?y6) (* (- 39.0) ?y3)) (* (- 80.0) x1)) ?x9690)))
 (let (($x10341 (< (+ (+ (* (- 54.0) ?y6) (* (- 20.0) ?y3)) (* 26.0 ?y1)) ?x10947)))
 (let ((?x1893 (- 39.0)))
 (let ((?x7941 (+ (+ (+ (* (- 34.0) ?y6) (* ?x9690 ?y4)) (* ?x7224 ?y3)) (* (- 72.0) x1))))
 (let (($x9834 (and (> ?x7941 ?x1893) (> (+ (* 39.0 ?y6) (* (- 20.0) ?y1)) 0.0))))
 (let ((?x10608 (* 21.0 x1)))
 (let ((?x11617 (+ (+ (+ (* (- 56.0) ?y4) (* 58.0 ?y3)) (* 52.0 ?y1)) ?x10608)))
 (let ((?x8000 (- 47.0)))
 (let (($x5727 (>= (+ (+ (* (- 38.0) ?y6) (* ?x9690 ?y4)) (* (- 16.0) ?y1)) ?x8000)))
 (let ((?x4129 (- 51.0)))
 (let ((?x6311 (+ (+ (+ (* 86.0 ?y6) (* 99.0 ?y4)) (* 100.0 ?y3)) (* (- 19.0) ?y1))))
 (let ((?x2027 (+ (+ (+ (* (- 25.0) ?y4) (* (- 15.0) ?y3)) (* 76.0 ?y1)) (* 16.0 x1))))
 (let ((?x3278 (- 33.0)))
 (let ((?x8809 (* ?x3278 ?y1)))
 (let ((?x1416 (+ (+ (+ (* (- 88.0) ?y6) (* (- 6.0) ?y4)) (* 91.0 ?y3)) ?x8809)))
 (let (($x10391 (or (and (<= (+ ?x1416 (* (- 89.0) x1)) 80.0) (not (= ?x2027 ?x1893))) (= (+ ?x6311 (* ?x7224 x1)) ?x4129))))
 (let (($x12188 (and (or $x10391 (or (or $x5727 (< ?x11617 0.0)) $x9834)) (and (and $x10341 (and $x6458 (< (* 31.0 x1) ?x9690))) $x7098))))
 (or $x12188 $x105)))))))))))))))))))))))))))))))))))))))))))))))) :qid k!19))
 ))
 (let (($x2502 (exists ((?y5 Real) )(! (let (($x9296 (> (+ (+ (* 46.0 ?y5) (* 6.0 ?y3)) (* (- 96.0) x1)) 0.0)))
 (let (($x5945 (>= (+ (+ (* (- 91.0) ?y3) (* (- 12.0) ?y1)) (* 9.0 x1)) (- 68.0))))
 (let ((?x385 (- 15.0)))
 (let ((?x5748 (+ (+ (+ (* 68.0 ?y4) (* 66.0 ?y3)) (* 77.0 ?y1)) (* (- 42.0) x1))))
 (let (($x7243 (= (+ (+ (* 43.0 ?y5) (* (- 35.0) ?y4)) (* 71.0 ?y3)) 33.0)))
 (let ((?x2903 (- 26.0)))
 (let ((?x9968 (+ (+ (+ (* (- 35.0) ?y5) (* 99.0 ?y4)) (* (- 49.0) ?y3)) (* 90.0 ?y1))))
 (let ((?x10105 (- 81.0)))
 (let ((?x12218 (* 76.0 x1)))
 (let ((?x9951 (+ (+ (+ (* 50.0 ?y5) (* (- 100.0) ?y4)) (* 9.0 ?y3)) ?x12218)))
 (let (($x5356 (or (or (<= ?x9951 ?x10105) (< (+ ?x9968 (* 20.0 x1)) ?x2903)) (or (and (not $x7243) (not (= ?x5748 ?x385))) (and $x5945 $x9296)))))
 (let ((?x10557 (- 92.0)))
 (let ((?x4298 (+ (+ (* (- 23.0) ?y4) (* (- 61.0) ?y3)) (* (- 48.0) ?y1))))
 (let ((?x11868 (- 5.0)))
 (let ((?x8529 (* ?x11868 x1)))
 (let (($x6237 (= (+ (+ (+ (* 11.0 ?y5) (* 84.0 ?y4)) (* 25.0 ?y3)) ?x8529) 0.0)))
 (let (($x3308 (= (+ (+ (* (- 42.0) ?y4) (* (- 49.0) ?y3)) (* ?x2903 x1)) 51.0)))
 (let ((?x12205 (- 60.0)))
 (let (($x10321 (= (+ (+ (* 38.0 ?y3) (* (- 80.0) ?y1)) (* 92.0 x1)) ?x12205)))
 (let (($x1089 (and (or $x10321 $x3308) (and (not $x6237) (< (+ ?x4298 (* 33.0 x1)) ?x10557)))))
 (or $x1089 $x5356))))))))))))))))))))) :qid k!19))
 ))
 (let (($x2339 (forall ((?y5 Real) )(! (forall ((?y6 Real) )(! (let ((?x7203 (- 96.0)))
 (let ((?x2716 (* 60.0 ?y3)))
 (let ((?x7622 (+ (+ (+ (* (- 99.0) ?y6) (* (- 53.0) ?y5)) (* 23.0 ?y4)) ?x2716)))
 (let ((?x10043 (* 6.0 ?y1)))
 (let ((?x6320 (* 36.0 ?y3)))
 (let ((?x11247 (+ (+ (+ (+ (* 13.0 ?y6) (* 64.0 ?y5)) (* 21.0 ?y4)) ?x6320) ?x10043)))
 (let ((?x8000 (- 47.0)))
 (let ((?x1738 (* 70.0 x1)))
 (let ((?x435 (+ (+ (+ (* (- 92.0) ?y6) (* 42.0 ?y5)) (* 59.0 ?y4)) (* (- 30.0) ?y3))))
 (let ((?x11319 (- 94.0)))
 (let ((?x2138 (* 77.0 x1)))
 (let ((?x8425 (+ (+ (+ (* (- 78.0) ?y6) (* 30.0 ?y5)) (* 79.0 ?y4)) (* 87.0 ?y3))))
 (let (($x5321 (and (not (= (+ (+ ?x8425 (* 56.0 ?y1)) ?x2138) ?x11319)) (>= (+ (+ ?x435 (* (- 65.0) ?y1)) ?x1738) ?x8000))))
 (let (($x10543 (or $x5321 (and (= ?x11247 78.0) (= (+ ?x7622 (* (- 32.0) ?y1)) ?x7203)))))
 (let ((?x12205 (- 60.0)))
 (let (($x2810 (= (+ (+ (* 68.0 ?y6) (* (- 23.0) ?y4)) (* 43.0 x1)) ?x12205)))
 (let (($x2950 (= (+ (+ (* (- 31.0) ?y6) (* 25.0 ?y5)) (* 100.0 ?y3)) 30.0)))
 (let ((?x9271 (- 22.0)))
 (let ((?x10955 (+ (+ (+ (* (- 38.0) ?y6) (* 84.0 ?y4)) (* (- 88.0) ?y3)) (* (- 45.0) x1))))
 (let ((?x8281 (* 40.0 x1)))
 (let ((?x6739 (* 6.0 ?y3)))
 (let ((?x397 (+ (+ (+ (+ (* 17.0 ?y6) (* 10.0 ?y5)) (* 67.0 ?y4)) ?x6739) (* (- 63.0) ?y1))))
 (let (($x9039 (< (+ (+ (* 5.0 ?y4) (* (- 26.0) ?y3)) (* 82.0 ?y1)) 49.0)))
 (and (or $x9039 (and (>= (+ ?x397 ?x8281) 61.0) (<= ?x10955 ?x9271))) (or (or (not $x2950) (not $x2810)) $x10543))))))))))))))))))))))))) :qid k!19))
  :qid k!19))
 ))
 (or (or (or $x2339 $x2502) $x4320) (and $x3297 (and $x11213 $x12533))))))))) :qid k!19))
  :qid k!19))
 ))
 (or $x441 $x11467)))))))))))))))))))))))))))))))))))))
 )
(check-sat)
